RSW07
Position Depot: Center
Horizon for Depot: Small
Position of customers: Random
Distribution of the demand: Small
Width of time windows: Wide
Distribution of the service: Small

VEHICLE 
NUMBER 	 CAPACITY 
 7 	 	 106 
 
CUSTOMER
CUST NO. 	 XCOORD.  	 YCOORD. 	 DEMAND 	 READY TIME 	 DUE DATE 	 SERVICE TIME 
 0 	 	 500 	 	 500 	 	 0 	 	 0 	 	 1545 	 	 0 
  1 	 	 179 	 	 887 	 	 10 	 	 1128 	 	 1545 	 	 51 
  2 	 	 928 	 	 66 	 	 10 	 	 175 	 	 670 	 	 84 
  3 	 	 8 	 	 473 	 	 9 	 	 688 	 	 1075 	 	 88 
  4 	 	 788 	 	 148 	 	 6 	 	 296 	 	 500 	 	 73 
  5 	 	 742 	 	 601 	 	 10 	 	 1303 	 	 1545 	 	 53 
  6 	 	 125 	 	 149 	 	 6 	 	 235 	 	 565 	 	 64 
  7 	 	 585 	 	 759 	 	 9 	 	 274 	 	 510 	 	 72 
  8 	 	 416 	 	 352 	 	 10 	 	 812 	 	 1208 	 	 82 
  9 	 	 195 	 	 275 	 	 10 	 	 980 	 	 1277 	 	 96 
  10 	 	 421 	 	 811 	 	 6 	 	 623 	 	 934 	 	 56 
  11 	 	 330 	 	 172 	 	 8 	 	 1223 	 	 1545 	 	 70 
  12 	 	 555 	 	 950 	 	 7 	 	 192 	 	 498 	 	 60 
  13 	 	 328 	 	 310 	 	 9 	 	 807 	 	 1058 	 	 50 
  14 	 	 191 	 	 848 	 	 10 	 	 924 	 	 1312 	 	 62 
  15 	 	 162 	 	 284 	 	 6 	 	 144 	 	 441 	 	 74 
  16 	 	 573 	 	 442 	 	 7 	 	 305 	 	 538 	 	 68 
  17 	 	 875 	 	 511 	 	 9 	 	 789 	 	 1105 	 	 89 
  18 	 	 741 	 	 50 	 	 7 	 	 465 	 	 865 	 	 86 
  19 	 	 752 	 	 864 	 	 6 	 	 1150 	 	 1522 	 	 71 
  20 	 	 462 	 	 172 	 	 9 	 	 -15 	 	 418 	 	 58 
  21 	 	 157 	 	 961 	 	 5 	 	 641 	 	 927 	 	 58 
  22 	 	 111 	 	 569 	 	 10 	 	 295 	 	 551 	 	 53 
  23 	 	 796 	 	 590 	 	 8 	 	 219 	 	 695 	 	 75 
  24 	 	 734 	 	 356 	 	 7 	 	 28 	 	 342 	 	 73 
  25 	 	 763 	 	 24 	 	 5 	 	 368 	 	 710 	 	 68 
  26 	 	 564 	 	 317 	 	 6 	 	 658 	 	 1108 	 	 70 
  27 	 	 882 	 	 385 	 	 7 	 	 919 	 	 1325 	 	 63 
  28 	 	 427 	 	 358 	 	 5 	 	 1072 	 	 1545 	 	 78 
  29 	 	 311 	 	 314 	 	 8 	 	 612 	 	 826 	 	 68 
  30 	 	 132 	 	 906 	 	 5 	 	 1180 	 	 1545 	 	 65 
  31 	 	 687 	 	 909 	 	 6 	 	 868 	 	 1243 	 	 58 
  32 	 	 615 	 	 998 	 	 5 	 	 572 	 	 857 	 	 87 
  33 	 	 257 	 	 833 	 	 9 	 	 1112 	 	 1516 	 	 95 
  34 	 	 960 	 	 60 	 	 10 	 	 1112 	 	 1427 	 	 69 
  35 	 	 908 	 	 345 	 	 7 	 	 941 	 	 1162 	 	 50 
  36 	 	 846 	 	 422 	 	 7 	 	 140 	 	 390 	 	 58 
  37 	 	 598 	 	 289 	 	 5 	 	 -84 	 	 255 	 	 53 
  38 	 	 883 	 	 800 	 	 9 	 	 749 	 	 1204 	 	 53 
  39 	 	 925 	 	 211 	 	 6 	 	 1321 	 	 1545 	 	 72 
  40 	 	 287 	 	 975 	 	 7 	 	 893 	 	 1208 	 	 70 
  41 	 	 330 	 	 504 	 	 5 	 	 1077 	 	 1345 	 	 58 
  42 	 	 582 	 	 193 	 	 10 	 	 366 	 	 593 	 	 55 
  43 	 	 35 	 	 52 	 	 6 	 	 1162 	 	 1545 	 	 76 
  44 	 	 802 	 	 814 	 	 10 	 	 180 	 	 479 	 	 99 
  45 	 	 213 	 	 382 	 	 10 	 	 338 	 	 655 	 	 51 
  46 	 	 431 	 	 327 	 	 9 	 	 1129 	 	 1526 	 	 58 
  47 	 	 350 	 	 677 	 	 10 	 	 148 	 	 396 	 	 78 
  48 	 	 773 	 	 294 	 	 10 	 	 619 	 	 1024 	 	 88 
  49 	 	 102 	 	 212 	 	 10 	 	 1121 	 	 1484 	 	 95 
  50 	 	 603 	 	 359 	 	 10 	 	 605 	 	 1004 	 	 79 
  51 	 	 312 	 	 71 	 	 8 	 	 67 	 	 515 	 	 96 
  52 	 	 994 	 	 995 	 	 5 	 	 521 	 	 814 	 	 100 
  53 	 	 177 	 	 325 	 	 8 	 	 53 	 	 546 	 	 61 
  54 	 	 708 	 	 187 	 	 10 	 	 1053 	 	 1438 	 	 75 
  55 	 	 89 	 	 630 	 	 6 	 	 1096 	 	 1375 	 	 97 
  56 	 	 907 	 	 761 	 	 8 	 	 596 	 	 935 	 	 95 
  57 	 	 179 	 	 312 	 	 8 	 	 13 	 	 409 	 	 58 
  58 	 	 632 	 	 829 	 	 8 	 	 438 	 	 813 	 	 89 
  59 	 	 583 	 	 124 	 	 7 	 	 712 	 	 1035 	 	 56 
  60 	 	 5 	 	 473 	 	 5 	 	 438 	 	 892 	 	 88 
  61 	 	 965 	 	 947 	 	 6 	 	 252 	 	 709 	 	 51 
  62 	 	 769 	 	 793 	 	 9 	 	 403 	 	 814 	 	 63 
  63 	 	 322 	 	 435 	 	 10 	 	 1067 	 	 1366 	 	 60 
  64 	 	 757 	 	 822 	 	 6 	 	 1 	 	 453 	 	 77 
  65 	 	 117 	 	 176 	 	 5 	 	 1234 	 	 1454 	 	 55 
  66 	 	 467 	 	 582 	 	 8 	 	 563 	 	 860 	 	 83 
  67 	 	 851 	 	 905 	 	 5 	 	 508 	 	 951 	 	 98 
  68 	 	 933 	 	 94 	 	 7 	 	 257 	 	 652 	 	 65 
  69 	 	 722 	 	 82 	 	 9 	 	 286 	 	 769 	 	 87 
  70 	 	 32 	 	 576 	 	 8 	 	 66 	 	 528 	 	 67 
  71 	 	 445 	 	 225 	 	 7 	 	 728 	 	 1039 	 	 85 
  72 	 	 104 	 	 221 	 	 7 	 	 888 	 	 1343 	 	 85 
  73 	 	 164 	 	 777 	 	 7 	 	 652 	 	 909 	 	 64 
  74 	 	 761 	 	 409 	 	 8 	 	 747 	 	 1149 	 	 89 
  75 	 	 293 	 	 713 	 	 6 	 	 249 	 	 615 	 	 51 
  76 	 	 555 	 	 73 	 	 10 	 	 111 	 	 473 	 	 77 
  77 	 	 929 	 	 56 	 	 8 	 	 1017 	 	 1484 	 	 57 
  78 	 	 15 	 	 661 	 	 8 	 	 1214 	 	 1538 	 	 80 
  79 	 	 687 	 	 636 	 	 7 	 	 586 	 	 965 	 	 66 
  80 	 	 803 	 	 558 	 	 6 	 	 1072 	 	 1545 	 	 53 
  81 	 	 716 	 	 988 	 	 9 	 	 1190 	 	 1453 	 	 92 
  82 	 	 105 	 	 572 	 	 9 	 	 218 	 	 441 	 	 55 
  83 	 	 180 	 	 756 	 	 7 	 	 717 	 	 948 	 	 55 
  84 	 	 117 	 	 898 	 	 6 	 	 1096 	 	 1370 	 	 78 
  85 	 	 8 	 	 189 	 	 6 	 	 331 	 	 640 	 	 60 
  86 	 	 954 	 	 747 	 	 5 	 	 514 	 	 971 	 	 98 
  87 	 	 657 	 	 24 	 	 6 	 	 279 	 	 551 	 	 60 
  88 	 	 813 	 	 941 	 	 5 	 	 281 	 	 690 	 	 59 
  89 	 	 213 	 	 664 	 	 7 	 	 127 	 	 363 	 	 93 
  90 	 	 383 	 	 291 	 	 7 	 	 -47 	 	 263 	 	 80 
  91 	 	 29 	 	 83 	 	 9 	 	 447 	 	 691 	 	 81 
  92 	 	 219 	 	 117 	 	 10 	 	 313 	 	 522 	 	 52 
  93 	 	 655 	 	 416 	 	 8 	 	 122 	 	 345 	 	 51 
  94 	 	 560 	 	 0 	 	 9 	 	 399 	 	 650 	 	 93 
  95 	 	 257 	 	 312 	 	 6 	 	 647 	 	 874 	 	 56 
  96 	 	 550 	 	 348 	 	 7 	 	 80 	 	 540 	 	 85 
  97 	 	 422 	 	 93 	 	 9 	 	 334 	 	 808 	 	 89 
  98 	 	 89 	 	 851 	 	 8 	 	 334 	 	 594 	 	 53 
  99 	 	 709 	 	 51 	 	 5 	 	 1200 	 	 1419 	 	 59 
  100 	 	 839 	 	 205 	 	 8 	 	 1190 	 	 1545 	 	 90 
 